HUN,8,6,682
5,27,1,27,4,21,3,29,2,24,0,30
0,30,4,27,2,23,1,21,3,23,5,24
5,30,1,21,4,27,3,25,2,25,0,25
0,24,2,21,5,24,1,22,4,27,3,30
0,22,4,22,5,21,2,29,3,28,1,21
3,28,5,23,2,21,1,30,0,23,4,27
0,30,5,30,3,22,4,26,2,27,1,24
3,30,4,30,0,22,1,29,2,30,5,27
